p cnf 42 137
1 2 3 0
4 5 6 0
7 8 9 0
10 11 12 0
13 14 15 0
16 17 18 0
19 20 21 0
22 23 24 0
25 26 27 0
28 29 30 0
31 32 33 0
34 35 36 0
37 38 39 0
40 41 42 0
-1 -2 0
-1 -3 0
-2 -3 0
-4 -5 0
-4 -6 0
-5 -6 0
-7 -8 0
-7 -9 0
-8 -9 0
-10 -11 0
-10 -12 0
-11 -12 0
-13 -14 0
-13 -15 0
-14 -15 0
-16 -17 0
-16 -18 0
-17 -18 0
-19 -20 0
-19 -21 0
-20 -21 0
-22 -23 0
-22 -24 0
-23 -24 0
-25 -26 0
-25 -27 0
-26 -27 0
-28 -29 0
-28 -30 0
-29 -30 0
-31 -32 0
-31 -33 0
-32 -33 0
-34 -35 0
-34 -36 0
-35 -36 0
-37 -38 0
-37 -39 0
-38 -39 0
-40 -41 0
-40 -42 0
-41 -42 0
-1 -7 0
-2 -8 0
-3 -9 0
-1 -28 0
-2 -29 0
-3 -30 0
-4 -13 0
-5 -14 0
-6 -15 0
-4 -22 0
-5 -23 0
-6 -24 0
-4 -31 0
-5 -32 0
-6 -33 0
-4 -37 0
-5 -38 0
-6 -39 0
-7 -10 0
-8 -11 0
-9 -12 0
-7 -22 0
-8 -23 0
-9 -24 0
-10 -16 0
-11 -17 0
-12 -18 0
-10 -25 0
-11 -26 0
-12 -27 0
-10 -31 0
-11 -32 0
-12 -33 0
-13 -34 0
-14 -35 0
-15 -36 0
-16 -22 0
-17 -23 0
-18 -24 0
-16 -28 0
-17 -29 0
-18 -30 0
-16 -40 0
-17 -41 0
-18 -42 0
-19 -25 0
-20 -26 0
-21 -27 0
-19 -34 0
-20 -35 0
-21 -36 0
-19 -37 0
-20 -38 0
-21 -39 0
-22 -28 0
-23 -29 0
-24 -30 0
-22 -40 0
-23 -41 0
-24 -42 0
-25 -31 0
-26 -32 0
-27 -33 0
-25 -34 0
-26 -35 0
-27 -36 0
-25 -37 0
-26 -38 0
-27 -39 0
-28 -34 0
-29 -35 0
-30 -36 0
-28 -37 0
-29 -38 0
-30 -39 0
-31 -37 0
-32 -38 0
-33 -39 0
-34 -37 0
-35 -38 0
-36 -39 0
